N = 50;
MinK = 5;
Capacity = 1000;

Scale = 10;
DistanceRoundingMode = Floor;
X = array1d(0..N, [40, 25, 22, 22, 20, 20, 18, 15, 15, 10, 10, 8, 8, 5, 5, 2, 0, 0, 44, 42, 42, 40, 40, 38, 38, 35, 95, 95, 92, 90, 88, 88, 87, 85, 85, 67, 65, 65, 62, 60, 60, 58, 55, 55, 55, 20, 18, 2, 42, 42, 72]);
Y = array1d(0..N, [50, 85, 75, 85, 80, 85, 75, 75, 80, 35, 40, 40, 45, 35, 45, 40, 40, 45, 5, 10, 15, 5, 15, 5, 15, 5, 30, 35, 30, 35, 30, 35, 30, 25, 35, 85, 85, 82, 80, 80, 85, 75, 80, 85, 82, 82, 80, 45, 5, 12, 35]);

Demands = array1d(1..N, [20, 30, 10, 40, 20, 20, 20, 10, 20, 30, 40, 20, 10, 10, 20, 20, 20, 20, 40, 10, 10, 40, 30, 10, 20, 30, 20, 10, 10, 10, 20, 10, 10, 30, 20, 40, 10, 30, 10, 30, 20, 10, 20, 10, 10, 10, 10, 10, 10, 30]);

ServiceTimes = array1d(1..N, [10, 10, 10, 10, 10, 10, 10, 10, 10, 10, 10, 10, 10, 10, 10, 10, 10, 10, 10, 10, 10, 10, 10, 10, 10, 10, 10, 10, 10, 10, 10, 10, 10, 10, 10, 10, 10, 10, 10, 10, 10, 10, 10, 10, 10, 10, 10, 10, 10, 10]);

TimeWindows = array2d(1..2, 0..N, [|
    0, 613,  92, 411, 584,  40, 328, 240, 307, 311, 459, 135, 163, 593,  35, 114, 195, 643, 275, 194, 477, 155, 315, 141, 621, 664, 469,  86,  89, 134, 186, 105, 561,  51, 427, 597,  43, 497, 218,  36, 269, 316,  33, 514, 157,  37, 429,  45, 664, 380, 447 |
  960, 853, 332, 651, 824, 280, 568, 480, 547, 551, 699, 375, 403, 833, 275, 354, 435, 883, 515, 434, 717, 395, 555, 381, 861, 904, 709, 326, 329, 374, 426, 345, 801, 291, 667, 837, 283, 737, 458, 276, 509, 556, 273, 754, 397, 277, 669, 285, 904, 620, 687
|]);
